Set parameter TSPort to value 51199
Set parameter TokenServer to value "open-license1.lanl.gov"
Set parameter TimeLimit to value 64
Set parameter Threads to value 1
Gurobi Optimizer version 10.0.3 build v10.0.3rc0 (linux64)

CPU model: Intel(R) Xeon(R) CPU E5-2695 v4 @ 2.10GHz, instruction set [SSE2|AVX|AVX2]
Thread count: 36 physical cores, 72 logical processors, using up to 1 threads

Optimize a model with 0 rows, 598 columns and 0 nonzeros
Model fingerprint: 0x370c0171
Model has 2616 quadratic objective terms
Variable types: 0 continuous, 598 integer (598 binary)
Coefficient statistics:
  Matrix range     [0e+00, 0e+00]
  Objective range  [2e+00, 3e+01]
  QObjective range [8e+00, 8e+00]
  Bounds range     [1e+00, 1e+00]
  RHS range        [0e+00, 0e+00]
Found heuristic solution: objective 0.0000000
Found heuristic solution: objective -1012.000000
Found heuristic solution: objective -3654.000000
Found heuristic solution: objective -3676.000000
Presolve removed 0 rows and 1 columns
Presolve time: 0.24s
Presolved: 2615 rows, 3212 columns, 7845 nonzeros
Variable types: 0 continuous, 3212 integer (3212 binary)

Root relaxation: objective -4.948000e+03, 768 iterations, 0.02 seconds (0.01 work units)

    Nodes    |    Current Node    |     Objective Bounds      |     Work
 Expl Unexpl |  Obj  Depth IntInf | Incumbent    BestBd   Gap | It/Node Time

     0     0 -4948.0000    0  597 -3676.0000 -4948.0000  34.6%     -    0s
     0     0 -4518.5000    0  829 -3676.0000 -4518.5000  22.9%     -    0s
     0     0 -4517.5000    0  825 -3676.0000 -4517.5000  22.9%     -    0s
     0     0 -4413.5000    0  895 -3676.0000 -4413.5000  20.1%     -    0s
     0     0 -4413.5000    0  878 -3676.0000 -4413.5000  20.1%     -    1s
     0     2 -4413.3333    0  878 -3676.0000 -4413.3333  20.1%     -    1s
   511   474 -3761.0000  101 1308 -3676.0000 -4393.5000  19.5%  95.3    5s
   533   489 -4070.8235   32 1740 -3676.0000 -4070.8235  10.7%  91.3   10s
   543   495 -4010.6566   11 2013 -3676.0000 -4010.6566  9.10%  89.7   15s
   552   501 -3959.3333   63 2367 -3676.0000 -3971.8805  8.05%  88.2   21s
   560   507 -3947.1012    6 2456 -3676.0000 -3947.1012  7.37%  86.9   27s
   564   509 -3941.6062   65 2588 -3676.0000 -3941.6062  7.23%  86.3   30s
   569   513 -3921.2995   12 2687 -3676.0000 -3921.2995  6.67%  85.6   36s
   575   517 -3761.0000   95 2702 -3676.0000 -3908.7437  6.33%  84.7   41s
   582   521 -3767.0000   94 2725 -3676.0000 -3901.6032  6.14%  83.6   46s
   588   525 -3896.3598   68 2741 -3676.0000 -3896.3598  5.99%  82.8   50s
   595   530 -3890.4609   56 2768 -3676.0000 -3890.4609  5.83%  81.8   55s
   605   537 -3884.9119   68 2819 -3676.0000 -3884.9119  5.68%  80.5   60s

Cutting planes:
  Gomory: 31
  MIR: 113
  Flow cover: 856
  Zero half: 532
  Mod-K: 10
  RLT: 116
  BQP: 152

Explored 610 nodes (192321 simplex iterations) in 64.00 seconds (67.29 work units)
Thread count was 1 (of 72 available processors)

Solution count 4: -3676 -3654 -1012 0 

Time limit reached
Best objective -3.676000000000e+03, best bound -3.880000000000e+03, gap 5.5495%

User-callback calls 4082, time in user-callback 0.02 sec

BQP_SOLUTION, 598, 2616, -1344.000000, 64.000413, 1, 1, -1, 1, -1, 1, 1, 1, -1, -1, -1, 1, 1, -1, -1, -1, 1, -1, -1, -1, -1, 1, 1, -1, -1, -1, 1, 1, -1, -1, -1, 1, 1, -1, -1, -1, 1, 1, -1, -1, 1, -1, 1, 1, -1, -1, 1, 1, 1, -1, -1, 1, -1, 1, -1, 1, -1, 1, -1, -1, 1, -1, 1, -1, -1, -1, 1, -1, -1, 1, 1, -1, 1, -1, -1, 1, -1, -1, -1, -1, 1, -1, 1, -1, -1, 1, -1, 1, -1, -1, 1, -1, -1, 1, -1, 1, -1, -1, 1, -1, 1, 1, -1, 1, -1, 1, 1, -1, 1, 1, 1, -1, -1, 1, 1, 1, 1, -1, 1, 1, 1, -1, 1, 1, 1, 1, -1, 1, 1, -1, 1, -1, 1, 1, 1, 1, 1, 1, 1, 1, 1, -1, 1, 1, 1, 1, -1, 1, 1, -1, 1, -1, 1, 1, 1, 1, -1, 1, 1, 1, 1, -1, 1, 1, -1, 1, 1, 1, 1, 1, 1, -1, 1, 1, -1, 1, 1, 1, 1, 1, 1, 1, 1, 1, 1, 1, 1, 1, 1, 1, 1, 1, 1, 1, 1, 1, 1, 1, 1, 1, 1, 1, 1, 1, 1, 1, 1, 1, 1, 1, 1, 1, 1, 1, 1, 1, 1, 1, 1, 1, 1, 1, 1, 1, 1, 1, 1, 1, 1, 1, 1, -1, 1, 1, 1, 1, 1, -1, 1, 1, 1, 1, 1, 1, 1, -1, 1, 1, 1, 1, 1, 1, 1, -1, 1, -1, 1, 1, 1, 1, -1, 1, 1, 1, 1, -1, 1, 1, -1, 1, -1, 1, 1, 1, 1, -1, 1, 1, 1, 1, -1, 1, -1, 1, -1, 1, 1, 1, 1, 1, -1, 1, -1, -1, 1, -1, 1, 1, 1, 1, 1, -1, -1, -1, 1, -1, -1, -1, -1, 1, -1, -1, -1, 1, -1, -1, 1, -1, -1, 1, -1, -1, -1, 1, -1, -1, -1, -1, 1, -1, -1, -1, 1, 1, -1, -1, -1, -1, 1, -1, -1, -1, -1, 1, -1, 1, -1, -1, -1, -1, 1, -1, -1, -1, 1, 1, -1, 1, 1, -1, -1, 1, 1, 1, -1, -1, -1, -1, 1, 1, 1, -1, 1, 1, 1, -1, 1, 1, -1, 1, -1, -1, 1, -1, 1, 1, -1, 1, 1, 1, -1, 1, 1, -1, 1, 1, -1, 1, -1, 1, 1, -1, 1, -1, 1, 1, -1, -1, -1, 1, 1, -1, -1, 1, 1, -1, -1, -1, 1, -1, -1, -1, -1, -1, 1, -1, 1, -1, -1, 1, -1, -1, -1, -1, -1, 1, -1, 1, -1, -1, -1, -1, -1, -1, 1, -1, -1, -1, -1, -1, -1, -1, -1, -1, -1, 1, -1, -1, -1, 1, -1, -1, -1, -1, 1, -1, -1, -1, 1, 1, -1, -1, -1, 1, -1, -1, -1, -1, -1, -1, -1, -1, 1, 1, -1, -1, -1, -1, 1, -1, -1, -1, -1, 1, -1, -1, -1, 1, 1, 1, -1, -1, -1, 1, -1, 1, -1, -1, 1, -1, -1, -1, -1, 1, 1, -1, 1, -1, 1, 1, -1, -1, 1, 1, 1, -1, -1, -1, 1, 1, -1, -1, -1, 1, 1, 1, -1, -1, 1, -1, -1, 1, 1, 1, -1, -1, -1, 1, 1, 1, -1, -1, -1, 1, 1, -1, -1, 1, 1, 1, -1, -1, -1, 1, 1, -1, -1, 1, 1, -1, -1, -1, 1, 1, 1, 1, -1, -1, 1, 1, -1, -1, 1, 1, 1, -1, 1, -1, 1, 1, 1, 1, -1, 1, 1, -1, 1, -1
BQP_DATA, 598, 2616, -1344.000000, -1548.000000, -3676.000000, -3880.000000, 64.000413, 1542, 610
